N = 9;
H = 6;
T = 2;

avail = array3d(1..N, 1..H, 1..T, [2, 5, 4, 3, 4, 1, 3, 2, 3, 6, 4, 8, 8, 8, 3, 5, 2, 4, 2, 7, 7, 7, 7, 6, 0, 5, 6, 9, 3, 1, 10, 3, 6, 3, 2, 9, 8, 5, 3, 7, 0, 3, 9, 2, 0, 2, 6, 4, 5, 2, 7, 2, 0, 5, 3, 6, 9, 7, 5, 9, 4, 10, 7, 2, 6, 6, 10, 6, 5, 10, 9, 10, 5, 7, 9, 2, 7, 9, 4, 7, 2, 6, 1, 5, 0, 4, 4, 7, 7, 6, 7, 7, 0, 7, 3, 0, 0, 4, 10, 10, 8, 3, 10, 7, 8, 3, 4, 8]);

r = array2d(1..H, 1..T, [0, 2, 3, 3, 2, 0, 2, 1, 3, 0, 3, 3]);
